Maximize
 obj: 48.7 x1 + 52.0 x2 + 61.3 x3 + 72.0 x4 + 48.7 x5 + 52.0 x6 + 64.0 x7
      + 48.7 y1 + 52.0 y2 + 61.3 y3 + 72.0 y4 + 48.7 y5 + 52.0 y6 + 64.0 y7
Subject to
 x1 + y1 <= 8
 x2 + y2 <= 7
 x3 + y3 <= 9
 x4 + y4 <= 6
 x5 + y5 <= 6
 x6 + y6 <= 4
 x7 + y7 <= 8
 48.7 x1 + 52.0 x2 + 61.3 x3 + 72.0 x4 + 48.7 x5 + 52.0 x6 + 64.0 x7 <= 1020
 48.7 y1 + 52.0 y2 + 61.3 y3 + 72.0 y4 + 48.7 y5 + 52.0 y6 + 64.0 y7 <= 1020
 2000 x1 + 3000 x2 + 1000 x3 +  500 x4 + 4000 x5 + 2000 x6 + 1000 x7 <= 40000
 2000 y1 + 3000 y2 + 1000 y3 +  500 y4 + 4000 y5 + 2000 y6 + 1000 y7 <= 40000
\ 48.7 x5 + 52.0 x6 + 64.0 x7 + 48.7 y5 + 52.0 y6 + 64.0 y7 <= 302.7
 48.7 x5 + 52.0 x6 + 64.0 x7 <= 302.7
 48.7 y5 + 52.0 y6 + 64.0 y7 <= 302.7
Bounds
 0 <= x1 <= 8
 0 <= x2 <= 7
 0 <= x3 <= 9
 0 <= x4 <= 6
 0 <= x5 <= 6
 0 <= x6 <= 4
 0 <= x7 <= 8
 0 <= y1 <= 8
 0 <= y2 <= 7
 0 <= y3 <= 9
 0 <= y4 <= 6
 0 <= y5 <= 6
 0 <= y6 <= 4
 0 <= y7 <= 8
Integers
 x1 x2 x3 x4 x5 x6 x7
 y1 y2 y3 y4 y5 y6 y7
End
